p tw 155 32551 2 
1 3 
1 4 
1 5 
1 6 
1 7 
1 8 
1 9 
1 10 
1 11 
1 12 
1 13 
1 14 
1 15 
1 16 
1 17 
1 18 
1 19 
1 20 
1 21 
1 22 
1 23 
1 24 
1 25 
1 26 
1 27 
1 28 
1 29 
1 31 
1 43 
1 55 
1 56 
1 57 
1 58 
1 59 
1 60 
1 61 
1 62 
1 63 
1 64 
1 65 
1 66 
2 3 
2 4 
2 5 
2 6 
2 7 
2 8 
2 9 
2 10 
2 11 
2 12 
2 13 
2 14 
2 15 
2 16 
2 22 
2 30 
2 31 
2 32 
2 33 
2 34 
2 35 
2 36 
2 37 
2 38 
2 39 
2 40 
2 41 
2 42 
2 51 
2 60 
2 70 
2 80 
2 88 
2 98 
2 128 
2 129 
2 130 
2 131 
2 132 
2 133 
2 134 
3 4 
3 5 
3 6 
3 7 
3 8 
3 9 
3 10 
3 11 
3 12 
3 13 
3 14 
3 15 
3 17 
3 26 
3 30 
3 40 
3 43 
3 44 
3 45 
3 46 
3 47 
3 48 
3 49 
3 50 
3 51 
3 52 
3 53 
3 54 
3 62 
3 73 
3 83 
3 93 
3 100 
3 107 
3 112 
3 117 
3 129 
3 141 
3 142 
3 143 
4 5 
4 6 
4 7 
4 8 
4 9 
4 10 
4 11 
4 12 
4 13 
4 14 
4 15 
4 18 
4 19 
4 32 
4 34 
4 44 
4 46 
4 55 
4 56 
4 67 
4 68 
4 69 
4 70 
4 71 
4 72 
4 73 
4 74 
4 75 
4 76 
4 87 
4 88 
4 89 
4 90 
4 91 
4 92 
4 93 
4 94 
4 95 
4 96 
5 6 
5 7 
5 8 
5 9 
5 10 
5 11 
5 12 
5 13 
5 14 
5 15 
5 19 
5 21 
5 33 
5 36 
5 45 
5 47 
5 55 
5 58 
5 68 
5 77 
5 78 
5 79 
5 80 
5 81 
5 82 
5 83 
5 84 
5 85 
5 86 
5 88 
5 104 
5 105 
5 106 
5 107 
5 108 
5 109 
5 110 
5 111 
6 7 
6 8 
6 9 
6 10 
6 11 
6 12 
6 13 
6 14 
6 15 
6 20 
6 24 
6 35 
6 42 
6 47 
6 54 
6 57 
6 63 
6 67 
6 73 
6 77 
6 81 
6 87 
6 95 
6 97 
6 98 
6 99 
6 100 
6 101 
6 102 
6 103 
6 111 
6 116 
6 121 
6 128 
6 148 
6 150 
6 154 
7 8 
7 9 
7 10 
7 11 
7 12 
7 13 
7 14 
7 15 
7 20 
7 22 
7 37 
7 41 
7 48 
7 50 
7 56 
7 59 
7 69 
7 75 
7 78 
7 85 
7 89 
7 97 
7 104 
7 111 
7 112 
7 113 
7 114 
7 115 
7 116 
7 119 
7 134 
7 139 
7 140 
7 142 
7 147 
7 155 
8 9 
8 10 
8 11 
8 12 
8 13 
8 14 
8 15 
8 18 
8 23 
8 31 
8 39 
8 49 
8 52 
8 65 
8 70 
8 79 
8 86 
8 89 
8 90 
8 97 
8 98 
8 105 
8 109 
8 117 
8 118 
8 119 
8 120 
8 121 
8 122 
8 126 
8 136 
8 142 
8 151 
8 152 
8 154 
9 10 
9 11 
9 12 
9 13 
9 14 
9 15 
9 24 
9 28 
9 35 
9 38 
9 50 
9 52 
9 59 
9 64 
9 71 
9 74 
9 80 
9 84 
9 87 
9 92 
9 105 
9 106 
9 112 
9 117 
9 123 
9 124 
9 125 
9 126 
9 127 
9 130 
9 137 
9 144 
9 147 
9 148 
10 11 
10 12 
10 13 
10 14 
10 15 
10 16 
10 23 
10 37 
10 44 
10 53 
10 60 
10 64 
10 72 
10 81 
10 86 
10 91 
10 94 
10 99 
10 102 
10 107 
10 110 
10 116 
10 122 
10 123 
10 127 
10 132 
10 135 
10 136 
10 137 
10 138 
10 139 
10 143 
10 155 
11 12 
11 13 
11 14 
11 15 
11 25 
11 27 
11 32 
11 39 
11 45 
11 48 
11 61 
11 63 
11 72 
11 82 
11 92 
11 94 
11 100 
11 101 
11 106 
11 108 
11 113 
11 118 
11 119 
11 124 
11 128 
11 129 
11 135 
11 136 
11 140 
11 144 
11 145 
11 146 
12 13 
12 14 
12 15 
12 25 
12 28 
12 34 
12 40 
12 43 
12 54 
12 66 
12 71 
12 74 
12 82 
12 85 
12 95 
12 99 
12 102 
12 104 
12 109 
12 113 
12 120 
12 122 
12 125 
12 131 
12 134 
12 138 
12 141 
12 146 
12 149 
12 151 
12 153 
13 14 
13 15 
13 17 
13 29 
13 33 
13 36 
13 51 
13 61 
13 65 
13 67 
13 75 
13 79 
13 93 
13 96 
13 103 
13 110 
13 114 
13 115 
13 121 
13 123 
13 125 
13 132 
13 135 
13 141 
13 144 
13 145 
13 147 
13 149 
13 150 
13 151 
14 15 
14 21 
14 27 
14 41 
14 42 
14 49 
14 53 
14 62 
14 66 
14 69 
14 76 
14 78 
14 83 
14 91 
14 96 
14 101 
14 103 
14 108 
14 120 
14 124 
14 126 
14 130 
14 133 
14 137 
14 149 
14 150 
14 152 
14 153 
14 155 
15 26 
15 29 
15 30 
15 38 
15 46 
15 57 
15 58 
15 68 
15 76 
15 77 
15 84 
15 90 
15 114 
15 115 
15 118 
15 127 
15 131 
15 133 
15 138 
15 139 
15 140 
15 143 
15 145 
15 146 
15 148 
15 152 
15 153 
15 154 
16 17 
16 18 
16 19 
16 20 
16 21 
16 22 
16 23 
16 24 
16 25 
16 26 
16 27 
16 28 
16 29 
16 30 
16 31 
16 32 
16 33 
16 34 
16 35 
16 36 
16 37 
16 38 
16 39 
16 40 
16 41 
16 42 
16 53 
16 64 
16 72 
16 86 
16 94 
16 102 
16 110 
16 116 
16 122 
16 127 
16 132 
16 143 
16 155 
17 18 
17 19 
17 20 
17 21 
17 22 
17 23 
17 24 
17 25 
17 26 
17 27 
17 28 
17 29 
17 30 
17 36 
17 43 
17 44 
17 45 
17 46 
17 47 
17 48 
17 49 
17 50 
17 51 
17 52 
17 53 
17 54 
17 61 
17 67 
17 79 
17 93 
17 114 
17 123 
17 132 
17 145 
17 147 
17 149 
17 150 
17 151 
18 19 
18 20 
18 21 
18 22 
18 23 
18 24 
18 25 
18 26 
18 27 
18 28 
18 29 
18 32 
18 39 
18 44 
18 52 
18 55 
18 65 
18 67 
18 68 
18 69 
18 70 
18 71 
18 72 
18 73 
18 74 
18 75 
18 76 
18 86 
18 89 
18 98 
18 109 
18 126 
18 136 
18 142 
18 151 
18 152 
18 154 
19 20 
19 21 
19 22 
19 23 
19 24 
19 25 
19 26 
19 27 
19 28 
19 29 
19 33 
19 34 
19 45 
19 46 
19 55 
19 56 
19 77 
19 78 
19 79 
19 80 
19 81 
19 82 
19 83 
19 84 
19 85 
19 86 
19 87 
19 88 
19 89 
19 90 
19 91 
19 92 
19 93 
19 94 
19 95 
19 96 
20 21 
20 22 
20 23 
20 24 
20 25 
20 26 
20 27 
20 28 
20 29 
20 35 
20 41 
20 47 
20 50 
20 56 
20 57 
20 67 
20 75 
20 77 
20 85 
20 87 
20 97 
20 98 
20 99 
20 100 
20 101 
20 102 
20 103 
20 111 
20 119 
20 134 
20 139 
20 140 
20 142 
20 147 
20 155 
21 22 
21 23 
21 24 
21 25 
21 26 
21 27 
21 28 
21 29 
21 36 
21 41 
21 47 
21 53 
21 58 
21 66 
21 68 
21 69 
21 83 
21 88 
21 96 
21 101 
21 104 
21 105 
21 106 
21 107 
21 108 
21 109 
21 110 
21 111 
21 120 
21 124 
21 133 
21 137 
21 150 
21 152 
22 23 
22 24 
22 25 
22 26 
22 27 
22 28 
22 29 
22 37 
22 48 
22 51 
22 59 
22 60 
22 69 
22 70 
22 78 
22 80 
22 88 
22 89 
22 97 
22 98 
22 104 
22 112 
22 113 
22 114 
22 115 
22 116 
22 128 
22 129 
22 130 
22 131 
22 132 
22 133 
22 134 
23 24 
23 25 
23 26 
23 27 
23 28 
23 29 
23 31 
23 37 
23 44 
23 49 
23 60 
23 70 
23 79 
23 81 
23 90 
23 91 
23 97 
23 99 
23 105 
23 107 
23 117 
23 118 
23 119 
23 120 
23 121 
23 122 
23 123 
23 135 
23 136 
23 137 
23 138 
23 139 
24 25 
24 26 
24 27 
24 28 
24 29 
24 38 
24 42 
24 50 
24 54 
24 59 
24 63 
24 71 
24 73 
24 80 
24 81 
24 87 
24 95 
24 106 
24 111 
24 116 
24 117 
24 121 
24 123 
24 124 
24 125 
24 126 
24 127 
24 128 
24 148 
24 150 
24 154 
25 26 
25 27 
25 28 
25 29 
25 39 
25 40 
25 43 
25 48 
25 61 
25 72 
25 74 
25 82 
25 85 
25 92 
25 95 
25 100 
25 102 
25 108 
25 109 
25 113 
25 118 
25 120 
25 124 
25 125 
25 128 
25 131 
25 135 
25 138 
25 140 
25 149 
26 27 
26 28 
26 29 
26 30 
26 40 
26 57 
26 62 
26 68 
26 73 
26 83 
26 84 
26 90 
26 93 
26 100 
26 107 
26 112 
26 115 
26 117 
26 127 
26 129 
26 133 
26 138 
26 140 
26 141 
26 142 
26 143 
26 145 
26 153 
26 154 
27 28 
27 29 
27 32 
27 42 
27 45 
27 49 
27 62 
27 63 
27 76 
27 78 
27 91 
27 94 
27 101 
27 103 
27 106 
27 108 
27 113 
27 119 
27 126 
27 129 
27 130 
27 136 
27 144 
27 145 
27 146 
27 149 
27 153 
27 155 
28 29 
28 34 
28 35 
28 52 
28 54 
28 64 
28 66 
28 71 
28 74 
28 82 
28 84 
28 92 
28 99 
28 104 
28 105 
28 112 
28 122 
28 130 
28 134 
28 137 
28 141 
28 144 
28 146 
28 147 
28 148 
28 151 
28 153 
29 33 
29 38 
29 46 
29 51 
29 58 
29 65 
29 75 
29 76 
29 77 
29 96 
29 103 
29 110 
29 114 
29 115 
29 118 
29 121 
29 125 
29 131 
29 135 
29 139 
29 141 
29 143 
29 144 
29 146 
29 148 
29 152 
30 31 
30 32 
30 33 
30 34 
30 35 
30 36 
30 37 
30 38 
30 39 
30 40 
30 41 
30 42 
30 43 
30 44 
30 45 
30 46 
30 47 
30 48 
30 49 
30 50 
30 51 
30 52 
30 53 
30 54 
30 57 
30 68 
30 84 
30 90 
30 115 
30 127 
30 133 
30 138 
30 140 
30 145 
30 153 
30 154 
31 32 
31 33 
31 34 
31 35 
31 36 
31 37 
31 38 
31 39 
31 40 
31 41 
31 42 
31 43 
31 49 
31 55 
31 56 
31 57 
31 58 
31 59 
31 60 
31 61 
31 62 
31 63 
31 64 
31 65 
31 66 
31 70 
31 79 
31 90 
31 97 
31 105 
31 117 
31 118 
31 119 
31 120 
31 121 
31 122 
32 33 
32 34 
32 35 
32 36 
32 37 
32 38 
32 39 
32 40 
32 41 
32 42 
32 44 
32 45 
32 55 
32 63 
32 67 
32 68 
32 69 
32 70 
32 71 
32 72 
32 73 
32 74 
32 75 
32 76 
32 94 
32 101 
32 106 
32 113 
32 119 
32 129 
32 136 
32 144 
32 145 
32 146 
33 34 
33 35 
33 36 
33 37 
33 38 
33 39 
33 40 
33 41 
33 42 
33 45 
33 51 
33 55 
33 65 
33 75 
33 77 
33 78 
33 79 
33 80 
33 81 
33 82 
33 83 
33 84 
33 85 
33 86 
33 96 
33 103 
33 110 
33 115 
33 121 
33 125 
33 135 
33 141 
33 144 
34 35 
34 36 
34 37 
34 38 
34 39 
34 40 
34 41 
34 42 
34 46 
34 54 
34 56 
34 66 
34 71 
34 82 
34 87 
34 88 
34 89 
34 90 
34 91 
34 92 
34 93 
34 94 
34 95 
34 96 
34 99 
34 104 
34 122 
34 134 
34 141 
34 146 
34 151 
34 153 
35 36 
35 37 
35 38 
35 39 
35 40 
35 41 
35 42 
35 47 
35 52 
35 57 
35 64 
35 67 
35 74 
35 77 
35 84 
35 87 
35 92 
35 97 
35 98 
35 99 
35 100 
35 101 
35 102 
35 103 
35 105 
35 112 
35 130 
35 137 
35 144 
35 147 
35 148 
36 37 
36 38 
36 39 
36 40 
36 41 
36 42 
36 47 
36 58 
36 61 
36 67 
36 68 
36 79 
36 88 
36 93 
36 104 
36 105 
36 106 
36 107 
36 108 
36 109 
36 110 
36 111 
36 114 
36 123 
36 132 
36 145 
36 147 
36 149 
36 150 
36 151 
37 38 
37 39 
37 40 
37 41 
37 42 
37 44 
37 48 
37 59 
37 60 
37 69 
37 78 
37 81 
37 89 
37 91 
37 97 
37 99 
37 104 
37 107 
37 112 
37 113 
37 114 
37 115 
37 116 
37 123 
37 135 
37 136 
37 137 
37 138 
37 139 
38 39 
38 40 
38 41 
38 42 
38 46 
38 50 
38 58 
38 59 
38 71 
38 76 
38 77 
38 80 
38 87 
38 106 
38 114 
38 117 
38 118 
38 123 
38 124 
38 125 
38 126 
38 127 
38 131 
38 139 
38 143 
38 146 
38 148 
38 152 
39 40 
39 41 
39 42 
39 48 
39 52 
39 61 
39 65 
39 72 
39 82 
39 86 
39 89 
39 92 
39 98 
39 100 
39 108 
39 109 
39 118 
39 124 
39 126 
39 128 
39 135 
39 136 
39 140 
39 142 
39 151 
39 152 
39 154 
40 41 
40 42 
40 43 
40 62 
40 73 
40 74 
40 83 
40 85 
40 93 
40 95 
40 100 
40 102 
40 107 
40 109 
40 112 
40 113 
40 117 
40 120 
40 125 
40 129 
40 131 
40 138 
40 141 
40 142 
40 143 
40 149 
41 42 
41 50 
41 53 
41 56 
41 66 
41 69 
41 75 
41 83 
41 85 
41 96 
41 101 
41 111 
41 119 
41 120 
41 124 
41 133 
41 134 
41 137 
41 139 
41 140 
41 142 
41 147 
41 150 
41 152 
41 155 
42 49 
42 54 
42 62 
42 63 
42 73 
42 76 
42 78 
42 81 
42 91 
42 95 
42 103 
42 108 
42 111 
42 116 
42 121 
42 126 
42 128 
42 130 
42 148 
42 149 
42 150 
42 153 
42 154 
42 155 
43 44 
43 45 
43 46 
43 47 
43 48 
43 49 
43 50 
43 51 
43 52 
43 53 
43 54 
43 55 
43 56 
43 57 
43 58 
43 59 
43 60 
43 61 
43 62 
43 63 
43 64 
43 65 
43 66 
43 74 
43 85 
43 95 
43 102 
43 109 
43 113 
43 120 
43 125 
43 131 
43 138 
43 149 
44 45 
44 46 
44 47 
44 48 
44 49 
44 50 
44 51 
44 52 
44 53 
44 54 
44 55 
44 60 
44 67 
44 68 
44 69 
44 70 
44 71 
44 72 
44 73 
44 74 
44 75 
44 76 
44 81 
44 91 
44 99 
44 107 
44 123 
44 135 
44 136 
44 137 
44 138 
44 139 
45 46 
45 47 
45 48 
45 49 
45 50 
45 51 
45 52 
45 53 
45 54 
45 55 
45 63 
45 77 
45 78 
45 79 
45 80 
45 81 
45 82 
45 83 
45 84 
45 85 
45 86 
45 94 
45 101 
45 106 
45 113 
45 119 
45 129 
45 136 
45 144 
45 145 
45 146 
46 47 
46 48 
46 49 
46 50 
46 51 
46 52 
46 53 
46 54 
46 56 
46 58 
46 76 
46 77 
46 87 
46 88 
46 89 
46 90 
46 91 
46 92 
46 93 
46 94 
46 95 
46 96 
46 114 
46 118 
46 131 
46 139 
46 143 
46 146 
46 148 
46 152 
47 48 
47 49 
47 50 
47 51 
47 52 
47 53 
47 54 
47 57 
47 58 
47 67 
47 68 
47 77 
47 87 
47 88 
47 97 
47 98 
47 99 
47 100 
47 101 
47 102 
47 103 
47 104 
47 105 
47 106 
47 107 
47 108 
47 109 
47 110 
47 111 
48 49 
48 50 
48 51 
48 52 
48 53 
48 54 
48 59 
48 61 
48 69 
48 72 
48 78 
48 82 
48 89 
48 92 
48 97 
48 100 
48 104 
48 108 
48 112 
48 113 
48 114 
48 115 
48 116 
48 118 
48 124 
48 128 
48 135 
48 140 
49 50 
49 51 
49 52 
49 53 
49 54 
49 62 
49 70 
49 76 
49 78 
49 79 
49 90 
49 91 
49 97 
49 103 
49 105 
49 108 
49 117 
49 118 
49 119 
49 120 
49 121 
49 122 
49 126 
49 130 
49 149 
49 153 
49 155 
50 51 
50 52 
50 53 
50 54 
50 56 
50 59 
50 71 
50 75 
50 80 
50 85 
50 87 
50 106 
50 111 
50 117 
50 119 
50 123 
50 124 
50 125 
50 126 
50 127 
50 134 
50 139 
50 140 
50 142 
50 147 
50 155 
51 52 
51 53 
51 54 
51 60 
51 65 
51 70 
51 75 
51 80 
51 88 
51 96 
51 98 
51 103 
51 110 
51 115 
51 121 
51 125 
51 128 
51 129 
51 130 
51 131 
51 132 
51 133 
51 134 
51 135 
51 141 
51 144 
52 53 
52 54 
52 64 
52 65 
52 74 
52 84 
52 86 
52 89 
52 92 
52 98 
52 105 
52 109 
52 112 
52 126 
52 130 
52 136 
52 137 
52 142 
52 144 
52 147 
52 148 
52 151 
52 152 
52 154 
53 54 
53 64 
53 66 
53 69 
53 72 
53 83 
53 86 
53 94 
53 96 
53 101 
53 102 
53 110 
53 116 
53 120 
53 122 
53 124 
53 127 
53 132 
53 133 
53 137 
53 143 
53 150 
53 152 
53 155 
54 63 
54 66 
54 71 
54 73 
54 81 
54 82 
54 95 
54 99 
54 104 
54 111 
54 116 
54 121 
54 122 
54 128 
54 134 
54 141 
54 146 
54 148 
54 150 
54 151 
54 153 
54 154 
55 56 
55 57 
55 58 
55 59 
55 60 
55 61 
55 62 
55 63 
55 64 
55 65 
55 66 
55 67 
55 68 
55 69 
55 70 
55 71 
55 72 
55 73 
55 74 
55 75 
55 76 
55 77 
55 78 
55 79 
55 80 
55 81 
55 82 
55 83 
55 84 
55 85 
55 86 
56 57 
56 58 
56 59 
56 60 
56 61 
56 62 
56 63 
56 64 
56 65 
56 66 
56 75 
56 85 
56 87 
56 88 
56 89 
56 90 
56 91 
56 92 
56 93 
56 94 
56 95 
56 96 
56 111 
56 119 
56 134 
56 139 
56 140 
56 142 
56 147 
56 155 
57 58 
57 59 
57 60 
57 61 
57 62 
57 63 
57 64 
57 65 
57 66 
57 67 
57 68 
57 77 
57 84 
57 87 
57 90 
57 97 
57 98 
57 99 
57 100 
57 101 
57 102 
57 103 
57 115 
57 127 
57 133 
57 138 
57 140 
57 145 
57 153 
57 154 
58 59 
58 60 
58 61 
58 62 
58 63 
58 64 
58 65 
58 66 
58 68 
58 76 
58 77 
58 88 
58 104 
58 105 
58 106 
58 107 
58 108 
58 109 
58 110 
58 111 
58 114 
58 118 
58 131 
58 139 
58 143 
58 146 
58 148 
58 152 
59 60 
59 61 
59 62 
59 63 
59 64 
59 65 
59 66 
59 69 
59 71 
59 78 
59 80 
59 87 
59 89 
59 97 
59 104 
59 106 
59 112 
59 113 
59 114 
59 115 
59 116 
59 117 
59 123 
59 124 
59 125 
59 126 
59 127 
60 61 
60 62 
60 63 
60 64 
60 65 
60 66 
60 70 
60 80 
60 81 
60 88 
60 91 
60 98 
60 99 
60 107 
60 123 
60 128 
60 129 
60 130 
60 131 
60 132 
60 133 
60 134 
60 135 
60 136 
60 137 
60 138 
60 139 
61 62 
61 63 
61 64 
61 65 
61 66 
61 67 
61 72 
61 79 
61 82 
61 92 
61 93 
61 100 
61 108 
61 114 
61 118 
61 123 
61 124 
61 128 
61 132 
61 135 
61 140 
61 145 
61 147 
61 149 
61 150 
61 151 
62 63 
62 64 
62 65 
62 66 
62 73 
62 76 
62 78 
62 83 
62 91 
62 93 
62 100 
62 103 
62 107 
62 108 
62 112 
62 117 
62 126 
62 129 
62 130 
62 141 
62 142 
62 143 
62 149 
62 153 
62 155 
63 64 
63 65 
63 66 
63 73 
63 81 
63 94 
63 95 
63 101 
63 106 
63 111 
63 113 
63 116 
63 119 
63 121 
63 128 
63 129 
63 136 
63 144 
63 145 
63 146 
63 148 
63 150 
63 154 
64 65 
64 66 
64 72 
64 74 
64 84 
64 86 
64 92 
64 94 
64 102 
64 105 
64 110 
64 112 
64 116 
64 122 
64 127 
64 130 
64 132 
64 137 
64 143 
64 144 
64 147 
64 148 
64 155 
65 66 
65 75 
65 86 
65 89 
65 96 
65 98 
65 103 
65 109 
65 110 
65 115 
65 121 
65 125 
65 126 
65 135 
65 136 
65 141 
65 142 
65 144 
65 151 
65 152 
65 154 
66 69 
66 71 
66 82 
66 83 
66 96 
66 99 
66 101 
66 104 
66 120 
66 122 
66 124 
66 133 
66 134 
66 137 
66 141 
66 146 
66 150 
66 151 
66 152 
66 153 
67 68 
67 69 
67 70 
67 71 
67 72 
67 73 
67 74 
67 75 
67 76 
67 77 
67 79 
67 87 
67 93 
67 97 
67 98 
67 99 
67 100 
67 101 
67 102 
67 103 
67 114 
67 123 
67 132 
67 145 
67 147 
67 149 
67 150 
67 151 
68 69 
68 70 
68 71 
68 72 
68 73 
68 74 
68 75 
68 76 
68 84 
68 88 
68 90 
68 104 
68 105 
68 106 
68 107 
68 108 
68 109 
68 110 
68 111 
68 115 
68 127 
68 133 
68 138 
68 140 
68 145 
68 153 
68 154 
69 70 
69 71 
69 72 
69 73 
69 74 
69 75 
69 76 
69 78 
69 83 
69 89 
69 96 
69 97 
69 101 
69 104 
69 112 
69 113 
69 114 
69 115 
69 116 
69 120 
69 124 
69 133 
69 137 
69 150 
69 152 
70 71 
70 72 
70 73 
70 74 
70 75 
70 76 
70 79 
70 80 
70 88 
70 90 
70 97 
70 98 
70 105 
70 117 
70 118 
70 119 
70 120 
70 121 
70 122 
70 128 
70 129 
70 130 
70 131 
70 132 
70 133 
70 134 
71 72 
71 73 
71 74 
71 75 
71 76 
71 80 
71 82 
71 87 
71 99 
71 104 
71 106 
71 117 
71 122 
71 123 
71 124 
71 125 
71 126 
71 127 
71 134 
71 141 
71 146 
71 151 
71 153 
72 73 
72 74 
72 75 
72 76 
72 82 
72 86 
72 92 
72 94 
72 100 
72 102 
72 108 
72 110 
72 116 
72 118 
72 122 
72 124 
72 127 
72 128 
72 132 
72 135 
72 140 
72 143 
72 155 
73 74 
73 75 
73 76 
73 81 
73 83 
73 93 
73 95 
73 100 
73 107 
73 111 
73 112 
73 116 
73 117 
73 121 
73 128 
73 129 
73 141 
73 142 
73 143 
73 148 
73 150 
73 154 
74 75 
74 76 
74 84 
74 85 
74 92 
74 95 
74 102 
74 105 
74 109 
74 112 
74 113 
74 120 
74 125 
74 130 
74 131 
74 137 
74 138 
74 144 
74 147 
74 148 
74 149 
75 76 
75 85 
75 96 
75 103 
75 110 
75 111 
75 115 
75 119 
75 121 
75 125 
75 134 
75 135 
75 139 
75 140 
75 141 
75 142 
75 144 
75 147 
75 155 
76 77 
76 78 
76 91 
76 103 
76 108 
76 114 
76 118 
76 126 
76 130 
76 131 
76 139 
76 143 
76 146 
76 148 
76 149 
76 152 
76 153 
76 155 
77 78 
77 79 
77 80 
77 81 
77 82 
77 83 
77 84 
77 85 
77 86 
77 87 
77 97 
77 98 
77 99 
77 100 
77 101 
77 102 
77 103 
77 114 
77 118 
77 131 
77 139 
77 143 
77 146 
77 148 
77 152 
78 79 
78 80 
78 81 
78 82 
78 83 
78 84 
78 85 
78 86 
78 89 
78 91 
78 97 
78 103 
78 104 
78 108 
78 112 
78 113 
78 114 
78 115 
78 116 
78 126 
78 130 
78 149 
78 153 
78 155 
79 80 
79 81 
79 82 
79 83 
79 84 
79 85 
79 86 
79 90 
79 93 
79 97 
79 105 
79 114 
79 117 
79 118 
79 119 
79 120 
79 121 
79 122 
79 123 
79 132 
79 145 
79 147 
79 149 
79 150 
79 151 
80 81 
80 82 
80 83 
80 84 
80 85 
80 86 
80 87 
80 88 
80 98 
80 106 
80 117 
80 123 
80 124 
80 125 
80 126 
80 127 
80 128 
80 129 
80 130 
80 131 
80 132 
80 133 
80 134 
81 82 
81 83 
81 84 
81 85 
81 86 
81 91 
81 95 
81 99 
81 107 
81 111 
81 116 
81 121 
81 123 
81 128 
81 135 
81 136 
81 137 
81 138 
81 139 
81 148 
81 150 
81 154 
82 83 
82 84 
82 85 
82 86 
82 92 
82 99 
82 100 
82 104 
82 108 
82 118 
82 122 
82 124 
82 128 
82 134 
82 135 
82 140 
82 141 
82 146 
82 151 
82 153 
83 84 
83 85 
83 86 
83 93 
83 96 
83 100 
83 101 
83 107 
83 112 
83 117 
83 120 
83 124 
83 129 
83 133 
83 137 
83 141 
83 142 
83 143 
83 150 
83 152 
84 85 
84 86 
84 90 
84 92 
84 105 
84 112 
84 115 
84 127 
84 130 
84 133 
84 137 
84 138 
84 140 
84 144 
84 145 
84 147 
84 148 
84 153 
84 154 
85 86 
85 95 
85 102 
85 109 
85 111 
85 113 
85 119 
85 120 
85 125 
85 131 
85 134 
85 138 
85 139 
85 140 
85 142 
85 147 
85 149 
85 155 
86 89 
86 94 
86 98 
86 102 
86 109 
86 110 
86 116 
86 122 
86 126 
86 127 
86 132 
86 136 
86 142 
86 143 
86 151 
86 152 
86 154 
86 155 
87 88 
87 89 
87 90 
87 91 
87 92 
87 93 
87 94 
87 95 
87 96 
87 97 
87 98 
87 99 
87 100 
87 101 
87 102 
87 103 
87 106 
87 117 
87 123 
87 124 
87 125 
87 126 
87 127 
88 89 
88 90 
88 91 
88 92 
88 93 
88 94 
88 95 
88 96 
88 98 
88 104 
88 105 
88 106 
88 107 
88 108 
88 109 
88 110 
88 111 
88 128 
88 129 
88 130 
88 131 
88 132 
88 133 
88 134 
89 90 
89 91 
89 92 
89 93 
89 94 
89 95 
89 96 
89 97 
89 98 
89 104 
89 109 
89 112 
89 113 
89 114 
89 115 
89 116 
89 126 
89 136 
89 142 
89 151 
89 152 
89 154 
90 91 
90 92 
90 93 
90 94 
90 95 
90 96 
90 97 
90 105 
90 115 
90 117 
90 118 
90 119 
90 120 
90 121 
90 122 
90 127 
90 133 
90 138 
90 140 
90 145 
90 153 
90 154 
91 92 
91 93 
91 94 
91 95 
91 96 
91 99 
91 103 
91 107 
91 108 
91 123 
91 126 
91 130 
91 135 
91 136 
91 137 
91 138 
91 139 
91 149 
91 153 
91 155 
92 93 
92 94 
92 95 
92 96 
92 100 
92 105 
92 108 
92 112 
92 118 
92 124 
92 128 
92 130 
92 135 
92 137 
92 140 
92 144 
92 147 
92 148 
93 94 
93 95 
93 96 
93 100 
93 107 
93 112 
93 114 
93 117 
93 123 
93 129 
93 132 
93 141 
93 142 
93 143 
93 145 
93 147 
93 149 
93 150 
93 151 
94 95 
94 96 
94 101 
94 102 
94 106 
94 110 
94 113 
94 116 
94 119 
94 122 
94 127 
94 129 
94 132 
94 136 
94 143 
94 144 
94 145 
94 146 
94 155 
95 96 
95 102 
95 109 
95 111 
95 113 
95 116 
95 120 
95 121 
95 125 
95 128 
95 131 
95 138 
95 148 
95 149 
95 150 
95 154 
96 101 
96 103 
96 110 
96 115 
96 120 
96 121 
96 124 
96 125 
96 133 
96 135 
96 137 
96 141 
96 144 
96 150 
96 152 
97 98 
97 99 
97 100 
97 101 
97 102 
97 103 
97 104 
97 105 
97 112 
97 113 
97 114 
97 115 
97 116 
97 117 
97 118 
97 119 
97 120 
97 121 
97 122 
98 99 
98 100 
98 101 
98 102 
98 103 
98 109 
98 126 
98 128 
98 129 
98 130 
98 131 
98 132 
98 133 
98 134 
98 136 
98 142 
98 151 
98 152 
98 154 
99 100 
99 101 
99 102 
99 103 
99 104 
99 107 
99 122 
99 123 
99 134 
99 135 
99 136 
99 137 
99 138 
99 139 
99 141 
99 146 
99 151 
99 153 
100 101 
100 102 
100 103 
100 107 
100 108 
100 112 
100 117 
100 118 
100 124 
100 128 
100 129 
100 135 
100 140 
100 141 
100 142 
100 143 
101 102 
101 103 
101 106 
101 113 
101 119 
101 120 
101 124 
101 129 
101 133 
101 136 
101 137 
101 144 
101 145 
101 146 
101 150 
101 152 
102 103 
102 109 
102 110 
102 113 
102 116 
102 120 
102 122 
102 125 
102 127 
102 131 
102 132 
102 138 
102 143 
102 149 
102 155 
103 108 
103 110 
103 115 
103 121 
103 125 
103 126 
103 130 
103 135 
103 141 
103 144 
103 149 
103 153 
103 155 
104 105 
104 106 
104 107 
104 108 
104 109 
104 110 
104 111 
104 112 
104 113 
104 114 
104 115 
104 116 
104 122 
104 134 
104 141 
104 146 
104 151 
104 153 
105 106 
105 107 
105 108 
105 109 
105 110 
105 111 
105 112 
105 117 
105 118 
105 119 
105 120 
105 121 
105 122 
105 130 
105 137 
105 144 
105 147 
105 148 
106 107 
106 108 
106 109 
106 110 
106 111 
106 113 
106 117 
106 119 
106 123 
106 124 
106 125 
106 126 
106 127 
106 129 
106 136 
106 144 
106 145 
106 146 
107 108 
107 109 
107 110 
107 111 
107 112 
107 117 
107 123 
107 129 
107 135 
107 136 
107 137 
107 138 
107 139 
107 141 
107 142 
107 143 
108 109 
108 110 
108 111 
108 118 
108 124 
108 126 
108 128 
108 130 
108 135 
108 140 
108 149 
108 153 
108 155 
109 110 
109 111 
109 113 
109 120 
109 125 
109 126 
109 131 
109 136 
109 138 
109 142 
109 149 
109 151 
109 152 
109 154 
110 111 
110 115 
110 116 
110 121 
110 122 
110 125 
110 127 
110 132 
110 135 
110 141 
110 143 
110 144 
110 155 
111 116 
111 119 
111 121 
111 128 
111 134 
111 139 
111 140 
111 142 
111 147 
111 148 
111 150 
111 154 
111 155 
112 113 
112 114 
112 115 
112 116 
112 117 
112 129 
112 130 
112 137 
112 141 
112 142 
112 143 
112 144 
112 147 
112 148 
113 114 
113 115 
113 116 
113 119 
113 120 
113 125 
113 129 
113 131 
113 136 
113 138 
113 144 
113 145 
113 146 
113 149 
114 115 
114 116 
114 118 
114 123 
114 131 
114 132 
114 139 
114 143 
114 145 
114 146 
114 147 
114 148 
114 149 
114 150 
114 151 
114 152 
115 116 
115 121 
115 125 
115 127 
115 133 
115 135 
115 138 
115 140 
115 141 
115 144 
115 145 
115 153 
115 154 
116 121 
116 122 
116 127 
116 128 
116 132 
116 143 
116 148 
116 150 
116 154 
116 155 
117 118 
117 119 
117 120 
117 121 
117 122 
117 123 
117 124 
117 125 
117 126 
117 127 
117 129 
117 141 
117 142 
117 143 
118 119 
118 120 
118 121 
118 122 
118 124 
118 128 
118 131 
118 135 
118 139 
118 140 
118 143 
118 146 
118 148 
118 152 
119 120 
119 121 
119 122 
119 129 
119 134 
119 136 
119 139 
119 140 
119 142 
119 144 
119 145 
119 146 
119 147 
119 155 
120 121 
120 122 
120 124 
120 125 
120 131 
120 133 
120 137 
120 138 
120 149 
120 150 
120 152 
121 122 
121 125 
121 128 
121 135 
121 141 
121 144 
121 148 
121 150 
121 154 
122 127 
122 132 
122 134 
122 141 
122 143 
122 146 
122 151 
122 153 
122 155 
123 124 
123 125 
123 126 
123 127 
123 132 
123 135 
123 136 
123 137 
123 138 
123 139 
123 145 
123 147 
123 149 
123 150 
123 151 
124 125 
124 126 
124 127 
124 128 
124 133 
124 135 
124 137 
124 140 
124 150 
124 152 
125 126 
125 127 
125 131 
125 135 
125 138 
125 141 
125 144 
125 149 
126 127 
126 130 
126 136 
126 142 
126 149 
126 151 
126 152 
126 153 
126 154 
126 155 
127 132 
127 133 
127 138 
127 140 
127 143 
127 145 
127 153 
127 154 
127 155 
128 129 
128 130 
128 131 
128 132 
128 133 
128 134 
128 135 
128 140 
128 148 
128 150 
128 154 
129 130 
129 131 
129 132 
129 133 
129 134 
129 136 
129 141 
129 142 
129 143 
129 144 
129 145 
129 146 
130 131 
130 132 
130 133 
130 134 
130 137 
130 144 
130 147 
130 148 
130 149 
130 153 
130 155 
131 132 
131 133 
131 134 
131 138 
131 139 
131 143 
131 146 
131 148 
131 149 
131 152 
132 133 
132 134 
132 143 
132 145 
132 147 
132 149 
132 150 
132 151 
132 155 
133 134 
133 137 
133 138 
133 140 
133 145 
133 150 
133 152 
133 153 
133 154 
134 139 
134 140 
134 141 
134 142 
134 146 
134 147 
134 151 
134 153 
134 155 
135 136 
135 137 
135 138 
135 139 
135 140 
135 141 
135 144 
136 137 
136 138 
136 139 
136 142 
136 144 
136 145 
136 146 
136 151 
136 152 
136 154 
137 138 
137 139 
137 144 
137 147 
137 148 
137 150 
137 152 
138 139 
138 140 
138 145 
138 149 
138 153 
138 154 
139 140 
139 142 
139 143 
139 146 
139 147 
139 148 
139 152 
139 155 
140 142 
140 145 
140 147 
140 153 
140 154 
140 155 
141 142 
141 143 
141 144 
141 146 
141 151 
141 153 
142 143 
142 147 
142 151 
142 152 
142 154 
142 155 
143 146 
143 148 
143 152 
143 155 
144 145 
144 146 
144 147 
144 148 
145 146 
145 147 
145 149 
145 150 
145 151 
145 153 
145 154 
146 148 
146 151 
146 152 
146 153 
147 148 
147 149 
147 150 
147 151 
147 155 
148 150 
148 152 
148 154 
149 150 
149 151 
149 153 
149 155 
150 151 
150 152 
150 154 
151 152 
151 153 
151 154 
152 154 
153 154 
153 155 
